Water Network: d11_kadu.dat
*******************************************************************************

-------------------------------- Solving with gurobi --------------------------
min_demand: 0.0333
max_demand: 0.3067
max_flow: 3.0869000000000004
eps: 3.306200576675385e-07 

Gurobi 11.0.2: Set parameter LogToConsole to value 1
  tech:outlev = 1
Set parameter Presolve to value 1
  pre:solve = 1
Set parameter TimeLimit to value 3600
  lim:time = 3600
Set parameter Method to value 2
  alg:method = 2
  alg:start = 1
Set parameter BarConvTol to value 1e-09
  bar:convtol = 1e-09
Set parameter FeasibilityTol to value 1e-05
  alg:feastol = 1e-05
  sol:chk:feastolrel = 0
Set parameter MIPGap to value 1e-09
  mip:gap = 1e-09
Set parameter InfUnbdInfo to value 1
Gurobi Optimizer version 11.0.2 build v11.0.2rc0 (linux64 - "Ubuntu 25.04")

CPU model: 11th Gen Intel(R) Core(TM) i5-1135G7 @ 2.40GHz, instruction set [SSE2|AVX|AVX2|AVX512]
Thread count: 4 physical cores, 8 logical processors, using up to 8 threads

Optimize a model with 58 rows, 738 columns and 542 nonzeros
Model fingerprint: 0x61963fa5
Model has 170 quadratic constraints
Model has 68 general constraints
Variable types: 738 continuous, 0 integer (0 binary)
Coefficient statistics:
  Matrix range     [1e+00, 1e+00]
  QMatrix range    [1e-03, 1e+01]
  QLMatrix range   [1e+00, 1e+00]
  Objective range  [1e+03, 2e+04]
  Bounds range     [1e-07, 5e+08]
  RHS range        [3e-02, 3e+03]
  QRHS range       [1e-07, 1e+02]
Presolve added 213 rows and 4593 columns
Presolve time: 0.08s
Presolved: 2753 rows, 5841 columns, 21697 nonzeros
Presolved model has 68 SOS constraint(s)
Presolved model has 612 bilinear constraint(s)

Solving non-convex MIQCP

Variable types: 5841 continuous, 0 integer (0 binary)
Root barrier log...

Ordering time: 0.01s

Barrier statistics:
 AA' NZ     : 3.167e+04
 Factor NZ  : 4.391e+04 (roughly 4 MB of memory)
 Factor Ops : 9.947e+05 (less than 1 second per iteration)
 Threads    : 1

                  Objective                Residual
Iter       Primal          Dual         Primal    Dual     Compl     Time
   0   3.41840211e+13 -2.09803072e+15  4.04e+12 5.36e+00  5.98e+10     0s
   1   2.03689143e+13 -5.69343563e+18  2.53e+12 1.51e+00  1.54e+14     0s
   2   1.07606128e+13 -1.04510861e+19  1.33e+12 6.28e-01  5.03e+14     0s
   3   5.50591833e+12 -6.46613884e+18  6.81e+11 3.05e-01  3.85e+14     0s
   4   2.77946683e+12 -3.36462374e+18  3.44e+11 1.50e-01  2.20e+14     0s
   5   1.39585030e+12 -1.69745083e+18  1.73e+11 7.47e-02  1.16e+14     0s
   6   6.98478919e+11 -8.50409208e+17  8.64e+10 3.73e-02  5.95e+13     0s
   7   1.44050775e+11 -1.74222093e+17  1.78e+10 7.61e-03  1.24e+13     0s
   8   6.66813752e+10 -8.03393817e+16  8.25e+09 3.50e-03  5.73e+12     0s
   9   2.86402562e+10 -3.43516012e+16  3.54e+09 1.49e-03  2.45e+12     0s
  10   1.44700875e+10 -1.71998693e+16  1.79e+09 7.39e-04  1.23e+12     0s
  11   7.39037607e+09 -9.11879582e+15  9.15e+08 3.87e-04  6.52e+11     0s
  12   6.56051705e+09 -4.63321429e+15  7.64e+08 1.45e-03  3.31e+11     0s
  13   5.58318592e+08 -8.44871668e+13  5.03e+07 2.28e-03  6.05e+09     0s
  14   2.06707762e+08 -3.19968954e+12  3.91e+06 6.62e-04  2.29e+08     0s
  15   1.89086442e+08 -8.15933022e+10  4.45e+05 7.82e-04  5.92e+06     0s
  16   1.49924502e+08 -1.19324133e+10  2.86e+04 1.58e-04  8.67e+05     0s
  17   8.95024688e+07 -4.96658399e+07  4.00e+03 1.67e-05  1.29e+04     0s
  18   4.20735708e+07  4.81085057e+07  1.80e+02 1.81e-05  1.01e+03     1s
  19   3.79169435e+07  5.90310381e+07  1.14e+01 4.99e-05  8.31e+01     1s
  20   3.76288584e+07  6.56695514e+07  8.54e-01 4.12e-05  1.02e+01     1s
  21   3.75993543e+07  6.07869095e+07  2.05e-01 4.00e-05  1.32e+00     1s
  22   3.75887727e+07  6.51783738e+07  5.81e-02 4.02e-05  2.96e-01     1s
  23   3.75795081e+07  5.26042175e+07  6.35e-03 4.02e-05  3.80e-02     1s
  24   3.75744702e+07  5.18404559e+07  1.46e-03 4.02e-05  1.73e-02     1s
  25   3.75739558e+07  5.55536732e+07  2.93e-03 4.03e-05  1.53e-02     1s
  26   3.75685179e+07  6.01693559e+07  4.88e-04 4.02e-05  4.78e-03     1s
  27   3.75641112e+07  6.06929906e+07  4.88e-04 4.02e-05  3.81e-03     1s
  28   3.75630624e+07  6.09256303e+07  4.88e-04 4.02e-05  3.66e-03     1s
  29   3.75660855e+07  5.74486831e+07  4.88e-04 3.87e-05  8.83e-02     1s
  30   3.75659044e+07  5.77180038e+07  4.88e-04 3.88e-05  7.02e-02     1s
  31   3.75641791e+07  5.64106744e+07  7.32e-04 3.91e-05  4.74e-02     1s
  32   3.75602735e+07  5.49842729e+07  9.77e-04 3.94e-05  1.30e-02     1s
  33   3.75572478e+07  5.76006235e+07  7.32e-04 3.95e-05  5.44e-03     1s
  34   3.75546209e+07  5.79089440e+07  9.77e-04 3.91e-05  2.68e-03     1s
  35   3.75539289e+07  4.97873272e+07  9.77e-04 3.80e-05  3.09e-02     1s
  36   3.75517744e+07  5.00430155e+07  7.32e-04 3.81e-05  1.26e-02     1s
  37   3.75516584e+07  4.81785815e+07  9.77e-04 3.77e-05  1.51e-02     1s
  38   3.75544413e+07  5.13734220e+07  7.32e-04 1.69e-05  1.40e-01     1s
  39   3.75529665e+07  4.79754388e+07  4.88e-04 3.30e-05  2.99e-02     1s
  40   3.75512558e+07  4.73349479e+07  2.44e-04 3.57e-05  9.27e-03     1s
  41   3.75500773e+07  4.72857582e+07  9.77e-04 3.55e-05  5.59e-03     1s
  42   3.75491051e+07  4.72249863e+07  9.77e-04 3.39e-05  4.29e-03     1s
  43   3.75479486e+07  4.88493290e+07  9.77e-04 2.69e-05  1.32e-02     1s
  44   3.75473734e+07  4.99785085e+07  9.77e-04 1.61e-05  1.64e-02     1s
  45   3.75467191e+07  5.14057917e+07  9.77e-04 1.18e-05  1.41e-02     1s
  46   3.75451516e+07  5.16675166e+07  9.77e-04 1.18e-05  7.64e-04     1s
  47   3.75450263e+07  5.28166167e+07  4.88e-04 1.18e-05  1.49e-04     1s
  48   3.75438434e+07  4.93382188e+07  4.88e-04 1.18e-05  1.25e-05     1s
  49   3.75436109e+07  4.94219021e+07  4.88e-04 1.18e-05  7.62e-06     1s
  50   3.75430055e+07  4.99619255e+07  4.88e-04 1.18e-05  3.67e-06     1s
  51   3.75429455e+07  4.99067707e+07  9.77e-04 1.18e-05  1.09e-05     1s
  52   3.75427893e+07  4.96788252e+07  4.88e-04 1.19e-05  9.33e-03     1s
  53   3.75423434e+07  4.96683535e+07  4.88e-04 1.19e-05  6.49e-03     1s
  54   3.75419396e+07  4.93082358e+07  9.77e-04 1.18e-05  1.78e-03     1s
  55   3.75418972e+07  4.91863604e+07  9.77e-04 1.18e-05  7.33e-04     1s
  56   3.75415089e+07  4.59053408e+07  9.77e-04 1.18e-05  2.65e-04     1s
  57   3.75411581e+07  4.55825005e+07  7.32e-04 1.17e-05  5.41e-04     1s
  58   3.75409484e+07  4.16574612e+07  4.88e-04 1.17e-05  2.46e-02     1s
  59   3.75402832e+07  4.44063229e+07  4.88e-04 1.17e-05  4.15e-03     1s
  60   3.75401471e+07  4.48910382e+07  4.88e-04 1.17e-05  1.47e-03     1s
  61   3.75390704e+07  4.48344352e+07  4.88e-04 1.17e-05  1.56e-03     2s
  62   3.75390370e+07  4.38877733e+07  2.44e-04 1.17e-05  1.55e-03     2s
  63   3.75383510e+07  3.86131287e+07  4.88e-04 1.18e-05  1.46e-04     2s
  64   3.75377227e+07  3.58357094e+07  9.77e-04 1.17e-05  2.80e-07     2s
  65   3.75370960e+07  3.58348119e+07  4.88e-04 1.17e-05  1.01e-08     2s
  66   3.75366243e+07  3.58348070e+07  4.88e-04 1.17e-05  2.48e-09     2s
  67   3.75362586e+07  3.58348083e+07  4.88e-04 1.17e-05  4.79e-10     2s
  68   3.75362324e+07  3.58353650e+07  4.88e-04 1.17e-05  1.61e-08     2s
  69   3.75360385e+07  3.58488931e+07  4.88e-04 1.17e-05  6.89e-05     2s
  70   3.75360376e+07  3.58488925e+07  4.88e-04 1.17e-05  6.94e-05     2s
  71   3.75360376e+07  3.58488924e+07  4.88e-04 1.17e-05  6.94e-05     2s
  72   3.75360376e+07  3.58488922e+07  4.88e-04 1.17e-05  6.94e-05     2s
  73   3.75360376e+07  3.58488914e+07  9.77e-04 1.17e-05  6.94e-05     2s
  74   3.75360373e+07  3.58488908e+07  9.77e-04 1.17e-05  6.94e-05     2s

Barrier performed 74 iterations in 1.96 seconds (0.21 work units)
Sub-optimal termination - objective 3.75362586e+07

Warning: Markowitz tolerance tightened to 0.5

Root relaxation: objective 3.745842e+07, 5464 iterations, 2.12 seconds (0.22 work units)

    Nodes    |    Current Node    |     Objective Bounds      |     Work
 Expl Unexpl |  Obj  Depth IntInf | Incumbent    BestBd   Gap | It/Node Time

     0     0 3.7458e+07    0  188          - 3.7458e+07      -     -    2s
     0     0 3.7458e+07    0  203          - 3.7458e+07      -     -    2s
     0     0 3.7458e+07    0  183          - 3.7458e+07      -     -    3s
     0     0 3.7458e+07    0  175          - 3.7458e+07      -     -    3s
     0     0 3.7458e+07    0  154          - 3.7458e+07      -     -    3s
     0     0 3.7458e+07    0  157          - 3.7458e+07      -     -    4s
     0     0 3.7458e+07    0  157          - 3.7458e+07      -     -    4s
     0     2 3.7458e+07    0  168          - 3.7458e+07      -     -    5s
    68   111 3.7458e+07   11  128          - 3.7458e+07      -  32.9   13s
   116   183 3.7458e+07   15  132          - 3.7458e+07      -  35.6   16s
   224   297 3.7458e+07   24  130          - 3.7458e+07      -  34.6   26s
   452   406 3.7458e+07   22  133          - 3.7458e+07      -  30.0   35s
   723   470 infeasible   46               - 3.7458e+07      -  29.8   42s
   961   542 3.9297e+07   68  160          - 3.7458e+07      -  29.8   50s
  1241   640 infeasible   40               - 3.7458e+07      -  28.2   61s
  1509   725 infeasible   62               - 3.7458e+07      -  28.7   73s
  1808   824 infeasible   91               - 3.7458e+07      -  27.7   83s
  2101   826 3.7458e+07   34    0          - 3.7458e+07      -  26.6   85s
  2102   826 3.7458e+07   38  178          - 3.7458e+07      -  26.6  136s
  2104   828 3.7458e+07   57  177          - 3.7458e+07      -  26.6  142s
  2106   829 3.7458e+07   58  247          - 3.7458e+07      -  26.6  146s
  2107   830 3.8326e+07   74  151          - 3.7458e+07      -  26.6  151s
  2109   831 3.7458e+07   34  154          - 3.7458e+07      -  26.5  156s
  2111   832 3.7459e+07    8  159          - 3.7459e+07      -  26.5  160s
  2113   834 3.7459e+07   78  119          - 3.7459e+07      -  26.5  167s
  2115   835 3.8138e+07   95  144          - 3.7459e+07      -  26.5  172s
  2117   836 3.7459e+07   10  129          - 3.7459e+07      -  26.4  175s
  2121   839 3.7459e+07   23  135          - 3.7459e+07      -  26.4  181s
